
Gurobi 13.0.2 (win64) logging started Thu Jul 23 06:40:56 2026

Set parameter LogFile to value "E:\codes\ExactEBRP\results\gf_cplex_equivalent_gurobi_replica_round28\runs\stage2__moderate_seed5301__c3_replica__300s\external\native_logs\R.0.0.1.1.0.1.0.1.0.1_lp.gurobi.log"
Gurobi Optimizer version 13.0.2 build v13.0.2rc1 (win64 - Windows 10.0 (19045.2))

CPU model: 12th Gen Intel(R) Core(TM) i7-12700KF, instruction set [SSE2|AVX|AVX2]
Thread count: 12 physical cores, 20 logical processors, using up to 1 threads

Non-default parameters:
TimeLimit  4.8144841499999984e+01
MIPGap  0
MIPGapAbs  0
LogToConsole  0
Threads  1

Optimize a model with 11944 rows, 3386 columns and 67436 nonzeros (Min)
Model fingerprint: 0x9a1de35e
Model has 21 linear objective coefficients
Coefficient statistics:
  Matrix range     [9e-03, 1e+04]
  Objective range  [9e-03, 1e+00]
  Bounds range     [4e-02, 2e+02]
  RHS range        [4e-02, 5e+04]

Presolve removed 595 rows and 104 columns
Presolve time: 0.03s
Presolved: 11349 rows, 3325 columns, 65062 nonzeros

Iteration    Objective       Primal Inf.    Dual Inf.      Time
       0    3.5123645e-02   4.188469e+02   0.000000e+00      0s
    2507    8.1223568e-02   0.000000e+00   0.000000e+00      0s

Solved in 2507 iterations and 0.18 seconds (0.55 work units)
Optimal objective  8.122356815e-02

User-callback calls 2653, time in user-callback 0.00 sec
